NAME: random-14-22008
TYPE: TSP
COMMENT: size=14 seed=22008
DIMENSION: 30
EDGE_WEIGHT_TYPE: EUC_2D
NODE_COORD_SECTION
+0 456 574
-0 456 574
+1 365 930
-1 707 844
+2 381 882
-2 840 463
+3 247 616
-3 24 945
+4 426 489
-4 334 159
+5 788 594
-5 258 637
+6 46 852
-6 911 247
+7 243 823
-7 778 830
+8 24 668
-8 727 783
+9 651 583
-9 562 688
+10 644 295
-10 256 75
+11 194 407
-11 877 638
+12 905 68
-12 765 313
+13 560 202
-13 162 312
+14 563 83
-14 417 420
PRECEDENCE_SECTION
+0 -0
+1 -1
+2 -2
+3 -3
+4 -4
+5 -5
+6 -6
+7 -7
+8 -8
+9 -9
+10 -10
+11 -11
+12 -12
+13 -13
+14 -14
EOF
